====================================================================================================================
File name: 200_10_128_15.def
Creation date: Mon Nov 24 20:40:30 CET 2014
Website: http://imopse.ii.pwr.edu.pl/
Reference:
Myszkowski P. B., Skowronski M. E., Olech L., Oslizlo K.,
Hybrid Ant Colony Optimization in solving Multi-Skill Resource-Constrained Project Scheduling Problem,
Soft Computing, DOI: DOI 10.1007/s00500-014-1455-x
====================================================================================================================
General characteristics:
Tasks: 200
Resources: 10
Precedence relations: 128
Number of skill types: 15
====================================================================================================================
ResourceID 	 Salary 	 Skills
1	 	 	23.1	 	 Q10: 2 	  Q4: 1 	  Q7: 0 	  Q1: 0 	  Q8: 1 	  Q6: 0
2	 	 	98.0	 	 Q3: 0 	  Q2: 1 	  Q9: 0 	  Q11: 2 	  Q0: 1 	  Q7: 1
3	 	 	39.3	 	 Q1: 1 	  Q11: 0 	  Q14: 2 	  Q12: 0 	  Q0: 2 	  Q8: 1
4	 	 	46.2	 	 Q13: 2 	  Q14: 0 	  Q8: 0 	  Q12: 2 	  Q10: 2 	  Q1: 0
5	 	 	51.3	 	 Q0: 2 	  Q7: 0 	  Q14: 1 	  Q12: 1 	  Q9: 1 	  Q6: 1
6	 	 	11.5	 	 Q12: 0 	  Q8: 1 	  Q0: 2 	  Q9: 1 	  Q11: 1 	  Q10: 1
7	 	 	34.3	 	 Q1: 0 	  Q9: 1 	  Q4: 2 	  Q6: 1 	  Q2: 0 	  Q11: 0
8	 	 	20.3	 	 Q4: 1 	  Q13: 2 	  Q10: 1 	  Q6: 2 	  Q5: 1 	  Q9: 1
9	 	 	59.2	 	 Q7: 2 	  Q13: 2 	  Q9: 0 	  Q0: 2 	  Q12: 0 	  Q1: 2
10	 	 	10.8	 	 Q3: 1 	  Q11: 1 	  Q5: 0 	  Q8: 1 	  Q10: 2 	  Q6: 1
====================================================================================================================
TaskID 	 Duration 	 Skill 	 Predecessor IDs
1	 	 	36	 Q5: 0
2	 	 	29	 Q1: 2
3	 	 	18	 Q12: 2
4	 	 	30	 Q11: 2
5	 	 	19	 Q4: 1
6	 	 	28	 Q6: 2
7	 	 	14	 Q0: 2
8	 	 	11	 Q2: 1
9	 	 	19	 Q10: 2
10	 	 	35	 Q8: 1
11	 	 	25	 Q13: 2
12	 	 	14	 Q1: 1
13	 	 	10	 Q14: 0
14	 	 	15	 Q0: 2
15	 	 	13	 Q6: 2
16	 	 	29	 Q9: 1
17	 	 	37	 Q7: 1
18	 	 	22	 Q11: 1
19	 	 	17	 Q12: 1
20	 	 	31	 Q0: 2	 	6
21	 	 	11	 Q11: 0
22	 	 	15	 Q11: 2
23	 	 	14	 Q6: 0
24	 	 	32	 Q7: 0
25	 	 	28	 Q4: 2
26	 	 	22	 Q14: 0
27	 	 	28	 Q6: 1
28	 	 	33	 Q5: 0	 	14
29	 	 	26	 Q3: 1
30	 	 	30	 Q7: 2
31	 	 	17	 Q13: 2
32	 	 	24	 Q1: 2
33	 	 	35	 Q1: 2	 	13
34	 	 	13	 Q1: 1
35	 	 	27	 Q6: 2
36	 	 	15	 Q9: 1
37	 	 	15	 Q6: 0
38	 	 	22	 Q11: 2	 	19
39	 	 	14	 Q2: 0
40	 	 	35	 Q2: 1	 	7
41	 	 	19	 Q9: 1	 	31
42	 	 	18	 Q14: 0
43	 	 	9	 Q12: 0
44	 	 	22	 Q9: 1
45	 	 	39	 Q0: 2
46	 	 	25	 Q10: 2
47	 	 	34	 Q7: 1
48	 	 	22	 Q14: 0
49	 	 	16	 Q6: 2
50	 	 	40	 Q1: 2	 	18
51	 	 	34	 Q4: 1	 	10
52	 	 	25	 Q5: 1
53	 	 	13	 Q12: 2
54	 	 	9	 Q0: 2
55	 	 	10	 Q12: 0
56	 	 	22	 Q1: 1
57	 	 	28	 Q14: 0
58	 	 	27	 Q13: 2	 	6	45
59	 	 	17	 Q4: 1	 	4
60	 	 	16	 Q6: 2	 	18
61	 	 	13	 Q8: 1
62	 	 	13	 Q12: 0	 	14
63	 	 	19	 Q6: 2
64	 	 	34	 Q6: 2	 	22
65	 	 	12	 Q3: 1
66	 	 	29	 Q9: 1
67	 	 	32	 Q11: 1
68	 	 	37	 Q2: 1
69	 	 	40	 Q4: 2	 	27
70	 	 	15	 Q7: 1
71	 	 	10	 Q1: 1	 	47
72	 	 	33	 Q4: 1
73	 	 	26	 Q6: 0	 	39
74	 	 	29	 Q1: 1
75	 	 	28	 Q0: 2
76	 	 	26	 Q14: 0
77	 	 	22	 Q12: 1	 	55
78	 	 	30	 Q12: 0	 	62	67
79	 	 	37	 Q4: 1	 	44
80	 	 	19	 Q5: 0
81	 	 	26	 Q0: 2
82	 	 	38	 Q12: 1
83	 	 	15	 Q6: 1
84	 	 	32	 Q0: 2	 	48
85	 	 	10	 Q2: 0
86	 	 	33	 Q11: 0
87	 	 	27	 Q2: 1
88	 	 	10	 Q12: 0	 	50
89	 	 	36	 Q5: 0
90	 	 	13	 Q12: 1	 	60
91	 	 	37	 Q9: 0	 	18
92	 	 	10	 Q8: 0	 	21	15
93	 	 	23	 Q7: 1	 	19
94	 	 	9	 Q10: 2	 	15
95	 	 	20	 Q6: 1
96	 	 	26	 Q6: 0	 	31	67
97	 	 	29	 Q11: 2	 	78
98	 	 	13	 Q1: 0
99	 	 	11	 Q3: 1
100	 	 	9	 Q10: 2	 	27	61
101	 	 	11	 Q11: 2	 	72
102	 	 	9	 Q1: 0
103	 	 	36	 Q9: 0
104	 	 	16	 Q11: 1
105	 	 	28	 Q1: 2
106	 	 	16	 Q2: 0
107	 	 	25	 Q3: 0
108	 	 	17	 Q5: 0	 	26
109	 	 	35	 Q0: 1	 	39
110	 	 	9	 Q4: 1	 	81
111	 	 	22	 Q9: 0	 	49	94
112	 	 	27	 Q14: 1	 	82
113	 	 	32	 Q11: 2	 	38
114	 	 	40	 Q12: 2	 	110	27
115	 	 	28	 Q14: 2
116	 	 	34	 Q0: 1
117	 	 	13	 Q8: 1
118	 	 	10	 Q7: 0
119	 	 	16	 Q5: 1
120	 	 	32	 Q4: 1
121	 	 	14	 Q12: 0
122	 	 	20	 Q7: 0
123	 	 	14	 Q10: 1	 	121
124	 	 	10	 Q7: 2
125	 	 	12	 Q11: 1	 	5	29
126	 	 	16	 Q4: 2
127	 	 	28	 Q9: 0	 	72	14
128	 	 	10	 Q14: 2	 	99
129	 	 	9	 Q8: 1	 	57
130	 	 	16	 Q13: 2	 	118	89
131	 	 	40	 Q12: 2	 	69	101	118
132	 	 	33	 Q6: 0	 	21
133	 	 	20	 Q9: 0
134	 	 	35	 Q7: 2	 	46
135	 	 	39	 Q12: 1	 	96	17
136	 	 	17	 Q12: 2
137	 	 	40	 Q1: 0
138	 	 	21	 Q8: 0
139	 	 	37	 Q0: 2	 	92
140	 	 	40	 Q14: 0	 	108
141	 	 	14	 Q12: 2	 	109
142	 	 	28	 Q9: 1
143	 	 	16	 Q13: 2	 	90	137
144	 	 	17	 Q1: 2
145	 	 	19	 Q12: 2	 	98
146	 	 	12	 Q8: 0	 	124
147	 	 	14	 Q0: 2	 	97
148	 	 	10	 Q14: 2
149	 	 	14	 Q5: 0	 	78
150	 	 	23	 Q13: 2
151	 	 	32	 Q6: 1	 	77	45
152	 	 	24	 Q14: 0
153	 	 	32	 Q7: 1	 	9
154	 	 	23	 Q1: 2
155	 	 	38	 Q8: 0	 	84
156	 	 	29	 Q10: 1	 	107
157	 	 	10	 Q1: 0	 	88	28
158	 	 	9	 Q0: 1
159	 	 	14	 Q10: 1	 	109
160	 	 	28	 Q1: 2	 	129	66	36
161	 	 	24	 Q2: 1	 	86	14
162	 	 	14	 Q13: 2	 	4	14
163	 	 	11	 Q2: 1	 	162
164	 	 	40	 Q9: 0	 	52
165	 	 	24	 Q11: 1	 	146	15
166	 	 	25	 Q3: 1	 	132	79
167	 	 	38	 Q14: 2	 	121
168	 	 	34	 Q5: 0	 	152	29
169	 	 	21	 Q0: 2	 	117
170	 	 	27	 Q9: 0	 	79	136	133
171	 	 	26	 Q6: 2	 	51
172	 	 	24	 Q6: 2	 	135	98
173	 	 	25	 Q10: 1
174	 	 	20	 Q10: 1	 	23
175	 	 	23	 Q8: 1	 	14	60
176	 	 	16	 Q14: 0
177	 	 	37	 Q5: 0
178	 	 	16	 Q4: 1	 	175
179	 	 	39	 Q11: 1
180	 	 	14	 Q1: 0	 	101	167
181	 	 	18	 Q8: 1
182	 	 	18	 Q1: 2	 	158	5
183	 	 	20	 Q12: 0	 	86	53	28	112
184	 	 	10	 Q3: 1
185	 	 	18	 Q1: 0	 	39
186	 	 	26	 Q12: 0
187	 	 	18	 Q5: 0
188	 	 	11	 Q14: 1	 	156
189	 	 	27	 Q7: 1	 	178	76
190	 	 	31	 Q2: 1	 	21	167
191	 	 	40	 Q7: 2	 	180
192	 	 	40	 Q12: 2
193	 	 	20	 Q4: 1	 	129
194	 	 	23	 Q10: 1	 	37
195	 	 	38	 Q12: 2	 	76
196	 	 	21	 Q6: 0
197	 	 	20	 Q14: 1
198	 	 	21	 Q12: 0	 	38	151	44
199	 	 	35	 Q9: 0
200	 	 	13	 Q3: 0	 	67	12	49
====================================================================================================================
